% From JaCoP's nonogramRepository/data132.nin
 rows = 25;
 row_rule_len = 3;
 row_rules = array2d(1..rows, 1..row_rule_len, 
[
 0,0,2,
 0,0,3,
 0,2,4,
 0,2,7,
 0,2,9,
 2,3,10,
 2,6,11,
 2,5,13,
 3,5,11,
 2,6,9,
 0,6,7,
 0,6,6,
 1,6,3,
 4,6,1,
 0,6,6,
 8,6,4,
 0,9,12,
 10,6,5,
 12,6,4,
 12,5,3,
 11,5,1,
 10,1,4,
 9,2,2,
 0,7,4,
 0,4,2
]);

 cols = 25;
 col_rule_len = 4;
 col_rules = array2d(1..cols, 1..col_rule_len, 
[
 0,0,0,2,
 0,0,3,5,
 0,0,3,7,
 0,0,1,9,
 0,0,2,10,
 0,2,3,11,
 0,1,5,12,
 0,0,3,19,
 0,3,7,11,
 0,2,7,10,
 0,1,4,8,
 0,1,4,6,
 0,1,4,2,
 0,0,2,6,
 0,0,4,7,
 0,0,0,14,
 0,0,8,7,
 0,0,10,10,
 0,11,6,3,
 11,1,4,2,
 0,10,3,5,
 0,9,4,3,
 0,8,5,1,
 0,0,6,6,
 0,0,4,4
]);

